RAW/CMTY/fspd-mid/CMT7Y.vrp_seed-6.out
900.1193343	88.293	178.192
