RAW/CMTY/fspd-mid/CMT7Y.vrp_seed-6.sol
Route #1: 75 4 52 46 34 67
Route #2: 38 65 66 11 53 35 7
Route #3: 68 62 22 64 42 1 73
Route #4: 36 71 60 70 20 37
Route #5: 45 29 48 47 5 15 57 27
Route #6: 9 25 55 18 50 32
Route #7: 12 72 39 31 10 58 26
Route #8: 8 19 14 59 54 13
Route #9: 2 28 61 69 21 74 30
Route #10: 17 40 44 3 24 49 16 51
Route #11: 6 33 43 41 56 23 63
Cost 900.119334